Route #1: 26 12 58 10 72 39 9 40 17
Route #2: 31 25 55 18 50 32 44 3 51 6
Route #3: 16 49 24 23 56 41 43 42 64 22 73
Route #4: 33 63 1 62 28 61 21 74
Route #5: 2 47 36 69 71 60 70 20 37 15 57 13 54
Route #6: 19 14 59 11 66 65 38
Route #7: 7 53 35 8 52 27 46 34 67
Route #8: 4 45 29 5 48 30 68 75
Cost 782